7601
0 1 0 0 0 1 1 0 0 0 1 0 0 1 1 1 0 0 0 0 
1 6 15 10 5 13 5 5 15 1 5 14 6 13 6 13 13 5 5 15 10 10 10 14 14 10 1 14 14 1 15 1 15 15 15 5 13 13 10 10 10 13 13 13 5 5 5 5 5 15 15 5 10 14 14 10 6 6 6 13 13 5 1 5 15 15 10 14 15 1 15 10 10 10 10 15 15 15 15 14 15 5 13 13 6 13 6 1 6 1 13 13 13 6 6 13 13 13 13 13 
